15	4	2
1577	1577	1577	1577	
997	524	828	
509	520	590	
464	673	975	
866	79	131	
545	144	159	
111	847	1208	
841	304	500	
720	482	485	
261	519	637	
757	747	1444	
219	175	203	
152	240	340	
62	24	28	
433	188	354	
52	844	911	
